Route #1: 31 22 4 20 37 10 27 21 12 16 40 28 5 43 14
Route #2: 1 36 7 26 33 38 39 23
Route #3: 17 48
Route #4: 11 35 9 30 25 47
Route #5: 42 3 34 29 18 15 46 8 41
Route #6: 2 13 32 44 6 24
Route #7: 45 19
cost 1511.2242351024665
